<number of tasks>
25

<cycle time>
25

<task times>
1 4
2 3
3 9
4 5
5 9
6 4
7 8
8 7
9 5
10 1
11 3
12 1
13 5
14 3
15 5
16 3
17 13
18 5
19 2
20 3
21 7
22 5
23 3
24 8
25 4

<task process alternatives>
1: 4,15 ; 5,8
2: 3,15 ; 4,8
3: 8,15 ; 11,8
4: 4,15 ; 6,8
5: 8,15 ; 11,8
6: 4,15 ; 5,8
7: 7,15 ; 10,8
8: 6,15 ; 9,8
9: 4,15 ; 6,8
10: 1,15 ; 2,8
11: 3,15 ; 4,8
12: 1,15 ; 2,8
13: 4,15 ; 6,8
14: 3,15 ; 4,8
15: 4,15 ; 6,8
16: 3,15 ; 4,8
17: 11,15 ; 16,8
18: 4,15 ; 6,8
19: 2,15 ; 3,8
20: 3,15 ; 4,8
21: 6,15 ; 9,8
22: 4,15 ; 6,8
23: 3,15 ; 4,8
24: 7,15 ; 10,8
25: 4,15 ; 5,8

<incompatible tasks>
18,2
11,24
3,18

<precedence relations>
3,4
21,22
14,16
14,19
8,9
23,25
17,18
1,3
13,14
15,17
4,5
5,6
4,8
12,15
18,25
20,25
21,24
8,11
9,10
17,23
9,13
11,13
6,7
7,12
6,10
16,18
15,22
20,21
14,20
2,3
19,22
7,11

<number of task attributes>
1

<task attribute values>
1,1:70
2,1:6
4,1:16
5,1:91
6,1:7
8,1:80
9,1:9
10,1:92
11,1:8
13,1:2
15,1:6
16,1:1
18,1:97
21,1:5
24,1:2

<attribute bounds per station>
1:100

<linked tasks>
2,4
11,13
22,24

<incompatible tasks>
1,17
1,22
1,25
2,18
2,20
3,10
3,14
3,23
4,13
5,13
6,8
7,16
7,17
7,21
8,17
8,21
9,22
9,23
10,23
11,20
11,21
13,17
13,18
15,18
16,21
18,20

<optimal SALBP-1 value>
6

<rand seed>
236278236

<end>
